
Gurobi 12.0.2 (win64) logging started Fri Jun  6 10:11:14 2025

Set parameter LogFile to value "C:\Ioana\_uni\honours\slp\algorithm\Main_files\results\others\prox_tubules_new\Task_028_Sample001_irr_gurobi.log"
Gurobi Optimizer version 12.0.2 build v12.0.2rc0 (win64 - Windows 11.0 (26100.2))

CPU model: Intel(R) Core(TM) Ultra 5 125H, instruction set [SSE2|AVX|AVX2]
Thread count: 14 physical cores, 18 logical processors, using up to 18 threads

Non-default parameters:
TimeLimit  2200

Optimize a model with 47658 rows, 34802 columns and 147849 nonzeros
Model fingerprint: 0xadedeab3
Variable types: 17408 continuous, 17394 integer (17394 binary)
Coefficient statistics:
  Matrix range     [1e-04, 8e+04]
  Objective range  [1e-04, 1e+01]
  Bounds range     [1e+00, 1e+03]
  RHS range        [1e+00, 1e+00]
Presolve removed 31195 rows and 21843 columns
Presolve time: 0.35s
Presolved: 16463 rows, 12959 columns, 54698 nonzeros
Variable types: 6412 continuous, 6547 integer (6547 binary)
Found heuristic solution: objective 21.0498084

Root relaxation: objective 2.783084e+00, 0 iterations, 0.01 seconds (0.00 work units)

    Nodes    |    Current Node    |     Objective Bounds      |     Work
 Expl Unexpl |  Obj  Depth IntInf | Incumbent    BestBd   Gap | It/Node Time

*    0     0               0       2.7830836    2.78308  0.00%     -    0s

Explored 1 nodes (0 simplex iterations) in 0.47 seconds (0.45 work units)
Thread count was 18 (of 18 available processors)

Solution count 2: 2.78308 21.0498 

Optimal solution found (tolerance 1.00e-04)
Best objective 2.783083624383e+00, best bound 2.783083624383e+00, gap 0.0000%
